36861.4
0 103 62 192 5 48 89 148 117 9 128 83 136 23 37 108 177 181 98 125 35 160 131 123 58 73 20 145 71 111 46 139 31 184 44 90 97 126 22 114 112 178 59 61 163 119 154 141 34 85 26 11 19 146 130 166 76 164 179 60 24 80 101 134 68 167 129 188 140 158 102 172 88 168 41 30 79 55 199 132 144 96 180 196 3 64 65 195 25 186 151 110 183 147 69 21 15 87 143 162 115 17 78 165 52 18 191 109 74 198 118 113 91 7 156 135 173 159 27 92 57 176 50 86 105 8 6 56 153 174 82 54 107 121 33 28 45 2 42 189 133 124 116 13 197 187 47 127 138 137 170 29 171 182 161 84 67 72 122 43 169 175 190 49 193 194 149 38 185 104 4 142 36 77 51 155 95 99 70 157 40 32 75 12 94 81 1 120 39 63 53 66 10 152 100 14 16 106 150 93 
